
Gurobi 7.0.2 (linux64, Python) logging started Mon Jun 12 13:27:22 2017

Changed value of parameter Presolve to 0
   Prev: -1  Min: -1  Max: 2  Default: -1
Changed value of parameter Method to 0
   Prev: -1  Min: -1  Max: 4  Default: -1
Changed value of parameter MIPGap to 1e-07
   Prev: 0.0001  Min: 0.0  Max: 1e+100  Default: 0.0001

Gurobi 7.0.2 (linux64, Python) logging started Mon Jun 12 13:27:38 2017

Changed value of parameter Presolve to 0
   Prev: -1  Min: -1  Max: 2  Default: -1
Changed value of parameter Method to 0
   Prev: -1  Min: -1  Max: 4  Default: -1
Changed value of parameter MIPGap to 1e-07
   Prev: 0.0001  Min: 0.0  Max: 1e+100  Default: 0.0001
Optimize a model with 2 rows, 2 columns and 4 nonzeros
Coefficient statistics:
  Matrix range     [1e+00, 6e+00]
  Objective range  [1e+00, 2e+00]
  Bounds range     [0e+00, 0e+00]
  RHS range        [4e+00, 9e+00]
Iteration    Objective       Primal Inf.    Dual Inf.      Time
       0    0.0000000e+00   0.000000e+00   2.000000e+00      0s
       2   -3.5000000e+00   0.000000e+00   0.000000e+00      0s

Solved in 2 iterations and 0.03 seconds
Optimal objective -3.500000000e+00

Gurobi 7.0.2 (linux64, Python) logging started Mon Jun 12 13:28:22 2017

Changed value of parameter Presolve to 0
   Prev: -1  Min: -1  Max: 2  Default: -1
Changed value of parameter Method to 0
   Prev: -1  Min: -1  Max: 4  Default: -1
Changed value of parameter MIPGap to 1e-07
   Prev: 0.0001  Min: 0.0  Max: 1e+100  Default: 0.0001
Optimize a model with 2 rows, 2 columns and 4 nonzeros
Coefficient statistics:
  Matrix range     [1e+00, 6e+00]
  Objective range  [1e+00, 2e+00]
  Bounds range     [0e+00, 0e+00]
  RHS range        [4e+00, 9e+00]
Iteration    Objective       Primal Inf.    Dual Inf.      Time
       0    0.0000000e+00   0.000000e+00   2.000000e+00      0s
       2   -3.5000000e+00   0.000000e+00   0.000000e+00      0s

Solved in 2 iterations and 0.00 seconds
Optimal objective -3.500000000e+00

Gurobi 7.0.2 (linux64, Python) logging started Mon Jun 12 13:29:24 2017

Changed value of parameter Presolve to 0
   Prev: -1  Min: -1  Max: 2  Default: -1
Changed value of parameter Method to 0
   Prev: -1  Min: -1  Max: 4  Default: -1
Changed value of parameter MIPGap to 1e-07
   Prev: 0.0001  Min: 0.0  Max: 1e+100  Default: 0.0001
Optimize a model with 2 rows, 2 columns and 4 nonzeros
Coefficient statistics:
  Matrix range     [1e+00, 6e+00]
  Objective range  [1e+00, 2e+00]
  Bounds range     [0e+00, 0e+00]
  RHS range        [4e+00, 9e+00]
Iteration    Objective       Primal Inf.    Dual Inf.      Time
       0    0.0000000e+00   0.000000e+00   2.000000e+00      0s
       2   -3.5000000e+00   0.000000e+00   0.000000e+00      0s

Solved in 2 iterations and 0.00 seconds
Optimal objective -3.500000000e+00

Gurobi 7.0.2 (linux64, Python) logging started Mon Jun 12 13:30:14 2017

Changed value of parameter Presolve to 0
   Prev: -1  Min: -1  Max: 2  Default: -1
Changed value of parameter Method to 0
   Prev: -1  Min: -1  Max: 4  Default: -1
Changed value of parameter MIPGap to 1e-07
   Prev: 0.0001  Min: 0.0  Max: 1e+100  Default: 0.0001
Optimize a model with 2 rows, 2 columns and 4 nonzeros
Coefficient statistics:
  Matrix range     [1e+00, 6e+00]
  Objective range  [1e+00, 2e+00]
  Bounds range     [0e+00, 0e+00]
  RHS range        [4e+00, 9e+00]
Iteration    Objective       Primal Inf.    Dual Inf.      Time
       0    0.0000000e+00   0.000000e+00   2.000000e+00      0s
       2   -3.5000000e+00   0.000000e+00   0.000000e+00      0s

Solved in 2 iterations and 0.00 seconds
Optimal objective -3.500000000e+00

Gurobi 7.0.2 (linux64, Python) logging started Mon Jun 12 13:30:45 2017

Optimize a model with 2 rows, 2 columns and 4 nonzeros
Coefficient statistics:
  Matrix range     [1e+00, 6e+00]
  Objective range  [1e+00, 2e+00]
  Bounds range     [0e+00, 0e+00]
  RHS range        [4e+00, 9e+00]
Presolve time: 0.02s
Presolved: 2 rows, 2 columns, 4 nonzeros

Iteration    Objective       Primal Inf.    Dual Inf.      Time
       0   -2.0000000e+30   1.750000e+30   2.000000e+00      0s
       2   -3.5000000e+00   0.000000e+00   0.000000e+00      0s

Solved in 2 iterations and 0.03 seconds
Optimal objective -3.500000000e+00

Gurobi 7.0.2 (linux64, Python) logging started Mon Jun 12 13:30:52 2017

Changed value of parameter Presolve to 0
   Prev: -1  Min: -1  Max: 2  Default: -1
Changed value of parameter Method to 0
   Prev: -1  Min: -1  Max: 4  Default: -1
Changed value of parameter MIPGap to 1e-07
   Prev: 0.0001  Min: 0.0  Max: 1e+100  Default: 0.0001
Optimize a model with 2 rows, 2 columns and 4 nonzeros
Coefficient statistics:
  Matrix range     [1e+00, 6e+00]
  Objective range  [1e+00, 2e+00]
  Bounds range     [0e+00, 0e+00]
  RHS range        [4e+00, 9e+00]
Iteration    Objective       Primal Inf.    Dual Inf.      Time
       0    0.0000000e+00   0.000000e+00   2.000000e+00      0s
       2   -3.5000000e+00   0.000000e+00   0.000000e+00      0s

Solved in 2 iterations and 0.00 seconds
Optimal objective -3.500000000e+00

Gurobi 7.0.2 (linux64, Python) logging started Mon Jun 12 13:30:54 2017

Changed value of parameter Presolve to 0
   Prev: -1  Min: -1  Max: 2  Default: -1
Changed value of parameter Method to 0
   Prev: -1  Min: -1  Max: 4  Default: -1
Changed value of parameter MIPGap to 1e-07
   Prev: 0.0001  Min: 0.0  Max: 1e+100  Default: 0.0001
Optimize a model with 2 rows, 2 columns and 4 nonzeros
Coefficient statistics:
  Matrix range     [1e+00, 6e+00]
  Objective range  [1e+00, 2e+00]
  Bounds range     [0e+00, 0e+00]
  RHS range        [4e+00, 9e+00]
Iteration    Objective       Primal Inf.    Dual Inf.      Time
       0    0.0000000e+00   0.000000e+00   2.000000e+00      0s
       2   -3.5000000e+00   0.000000e+00   0.000000e+00      0s

Solved in 2 iterations and 0.00 seconds
Optimal objective -3.500000000e+00

Gurobi 7.0.2 (linux64, Python) logging started Mon Jun 12 13:31:28 2017

Changed value of parameter Presolve to 0
   Prev: -1  Min: -1  Max: 2  Default: -1
Changed value of parameter Method to 0
   Prev: -1  Min: -1  Max: 4  Default: -1
Changed value of parameter MIPGap to 1e-07
   Prev: 0.0001  Min: 0.0  Max: 1e+100  Default: 0.0001
Optimize a model with 2 rows, 2 columns and 4 nonzeros
Coefficient statistics:
  Matrix range     [1e+00, 6e+00]
  Objective range  [1e+00, 2e+00]
  Bounds range     [0e+00, 0e+00]
  RHS range        [4e+00, 9e+00]
Iteration    Objective       Primal Inf.    Dual Inf.      Time
       0    0.0000000e+00   0.000000e+00   2.000000e+00      0s
       2   -3.5000000e+00   0.000000e+00   0.000000e+00      0s

Solved in 2 iterations and 0.00 seconds
Optimal objective -3.500000000e+00

Gurobi 7.0.2 (linux64, Python) logging started Mon Jun 12 18:17:29 2017

Changed value of parameter Presolve to 0
   Prev: -1  Min: -1  Max: 2  Default: -1
Changed value of parameter Method to 0
   Prev: -1  Min: -1  Max: 4  Default: -1
Changed value of parameter MIPGap to 1e-07
   Prev: 0.0001  Min: 0.0  Max: 1e+100  Default: 0.0001
Optimize a model with 2 rows, 2 columns and 4 nonzeros
Coefficient statistics:
  Matrix range     [1e+00, 6e+00]
  Objective range  [1e+00, 2e+00]
  Bounds range     [0e+00, 0e+00]
  RHS range        [4e+00, 9e+00]
Iteration    Objective       Primal Inf.    Dual Inf.      Time
       0    0.0000000e+00   0.000000e+00   2.000000e+00      0s
       2   -3.5000000e+00   0.000000e+00   0.000000e+00      0s

Solved in 2 iterations and 0.00 seconds
Optimal objective -3.500000000e+00

Gurobi 7.0.2 (linux64, Python) logging started Mon Jun 12 18:31:04 2017

Changed value of parameter Presolve to 0
   Prev: -1  Min: -1  Max: 2  Default: -1
Changed value of parameter Method to 0
   Prev: -1  Min: -1  Max: 4  Default: -1
Changed value of parameter MIPGap to 1e-07
   Prev: 0.0001  Min: 0.0  Max: 1e+100  Default: 0.0001
Optimize a model with 3 rows, 2 columns and 5 nonzeros
Coefficient statistics:
  Matrix range     [1e+00, 6e+00]
  Objective range  [1e+00, 2e+00]
  Bounds range     [0e+00, 0e+00]
  RHS range        [1e+00, 9e+00]
Iteration    Objective       Primal Inf.    Dual Inf.      Time
       0    0.0000000e+00   0.000000e+00   2.000000e+00      0s
       2   -3.3333333e+00   0.000000e+00   0.000000e+00      0s

Solved in 2 iterations and 0.00 seconds
Optimal objective -3.333333333e+00

Gurobi 7.0.2 (linux64, Python) logging started Mon Jun 12 18:31:44 2017

Changed value of parameter Presolve to 0
   Prev: -1  Min: -1  Max: 2  Default: -1
Changed value of parameter Method to 0
   Prev: -1  Min: -1  Max: 4  Default: -1
Changed value of parameter MIPGap to 1e-07
   Prev: 0.0001  Min: 0.0  Max: 1e+100  Default: 0.0001
Optimize a model with 3 rows, 2 columns and 5 nonzeros
Coefficient statistics:
  Matrix range     [1e+00, 6e+00]
  Objective range  [1e+00, 2e+00]
  Bounds range     [0e+00, 0e+00]
  RHS range        [2e+00, 9e+00]
Iteration    Objective       Primal Inf.    Dual Inf.      Time
       0    0.0000000e+00   2.000000e+00   1.000001e+06      0s
       2   -2.0000000e+00   0.000000e+00   0.000000e+00      0s

Solved in 2 iterations and 0.00 seconds
Optimal objective -2.000000000e+00

Gurobi 7.0.2 (linux64, Python) logging started Mon Jun 12 18:34:44 2017

Changed value of parameter Presolve to 0
   Prev: -1  Min: -1  Max: 2  Default: -1
Changed value of parameter Method to 0
   Prev: -1  Min: -1  Max: 4  Default: -1
Changed value of parameter MIPGap to 1e-07
   Prev: 0.0001  Min: 0.0  Max: 1e+100  Default: 0.0001
Optimize a model with 3 rows, 2 columns and 5 nonzeros
Coefficient statistics:
  Matrix range     [1e+00, 6e+00]
  Objective range  [1e+00, 2e+00]
  Bounds range     [0e+00, 0e+00]
  RHS range        [1e+00, 9e+00]
Iteration    Objective       Primal Inf.    Dual Inf.      Time
       0    0.0000000e+00   0.000000e+00   2.000000e+00      0s
       2   -3.3333333e+00   0.000000e+00   0.000000e+00      0s

Solved in 2 iterations and 0.00 seconds
Optimal objective -3.333333333e+00

Gurobi 7.0.2 (linux64, Python) logging started Mon Jun 12 18:36:22 2017

Changed value of parameter Presolve to 0
   Prev: -1  Min: -1  Max: 2  Default: -1
Changed value of parameter Method to 0
   Prev: -1  Min: -1  Max: 4  Default: -1
Changed value of parameter MIPGap to 1e-07
   Prev: 0.0001  Min: 0.0  Max: 1e+100  Default: 0.0001
Optimize a model with 4 rows, 2 columns and 6 nonzeros
Coefficient statistics:
  Matrix range     [1e+00, 6e+00]
  Objective range  [1e+00, 2e+00]
  Bounds range     [0e+00, 0e+00]
  RHS range        [1e+00, 9e+00]
Iteration    Objective       Primal Inf.    Dual Inf.      Time
       0    0.0000000e+00   0.000000e+00   2.000000e+00      0s
       2   -3.2500000e+00   0.000000e+00   0.000000e+00      0s

Solved in 2 iterations and 0.00 seconds
Optimal objective -3.250000000e+00

Gurobi 7.0.2 (linux64, Python) logging started Mon Jun 12 18:40:45 2017

Changed value of parameter Presolve to 0
   Prev: -1  Min: -1  Max: 2  Default: -1
Changed value of parameter Method to 0
   Prev: -1  Min: -1  Max: 4  Default: -1
Changed value of parameter MIPGap to 1e-07
   Prev: 0.0001  Min: 0.0  Max: 1e+100  Default: 0.0001
Optimize a model with 4 rows, 2 columns and 6 nonzeros
Coefficient statistics:
  Matrix range     [1e+00, 6e+00]
  Objective range  [1e+00, 2e+00]
  Bounds range     [0e+00, 0e+00]
  RHS range        [1e+00, 9e+00]
Iteration    Objective       Primal Inf.    Dual Inf.      Time
       0    0.0000000e+00   3.000000e+00   1.000002e+06      0s

Solved in 2 iterations and 0.00 seconds
Infeasible model

Gurobi 7.0.2 (linux64, Python) logging started Mon Jun 12 18:40:57 2017

Changed value of parameter Presolve to 0
   Prev: -1  Min: -1  Max: 2  Default: -1
Changed value of parameter Method to 0
   Prev: -1  Min: -1  Max: 4  Default: -1
Changed value of parameter MIPGap to 1e-07
   Prev: 0.0001  Min: 0.0  Max: 1e+100  Default: 0.0001
Optimize a model with 4 rows, 2 columns and 6 nonzeros
Coefficient statistics:
  Matrix range     [1e+00, 6e+00]
  Objective range  [1e+00, 2e+00]
  Bounds range     [0e+00, 0e+00]
  RHS range        [1e+00, 9e+00]
Iteration    Objective       Primal Inf.    Dual Inf.      Time
       0    0.0000000e+00   3.000000e+00   1.000002e+06      0s

Solved in 2 iterations and 0.00 seconds
Infeasible model

Gurobi 7.0.2 (linux64, Python) logging started Mon Jun 12 18:41:52 2017

Changed value of parameter Presolve to 0
   Prev: -1  Min: -1  Max: 2  Default: -1
Changed value of parameter Method to 0
   Prev: -1  Min: -1  Max: 4  Default: -1
Changed value of parameter MIPGap to 1e-07
   Prev: 0.0001  Min: 0.0  Max: 1e+100  Default: 0.0001
Optimize a model with 4 rows, 2 columns and 6 nonzeros
Coefficient statistics:
  Matrix range     [1e+00, 6e+00]
  Objective range  [1e+00, 2e+00]
  Bounds range     [0e+00, 0e+00]
  RHS range        [1e+00, 9e+00]
Iteration    Objective       Primal Inf.    Dual Inf.      Time
       0    0.0000000e+00   0.000000e+00   2.000000e+00      0s
       2   -3.2500000e+00   0.000000e+00   0.000000e+00      0s

Solved in 2 iterations and 0.00 seconds
Optimal objective -3.250000000e+00

Gurobi 7.0.2 (linux64, Python) logging started Mon Jun 12 18:45:12 2017

Changed value of parameter Presolve to 0
   Prev: -1  Min: -1  Max: 2  Default: -1
Changed value of parameter Method to 0
   Prev: -1  Min: -1  Max: 4  Default: -1
Changed value of parameter MIPGap to 1e-07
   Prev: 0.0001  Min: 0.0  Max: 1e+100  Default: 0.0001
Optimize a model with 5 rows, 2 columns and 7 nonzeros
Coefficient statistics:
  Matrix range     [1e+00, 6e+00]
  Objective range  [1e+00, 2e+00]
  Bounds range     [0e+00, 0e+00]
  RHS range        [1e+00, 9e+00]
Iteration    Objective       Primal Inf.    Dual Inf.      Time
       0    0.0000000e+00   3.000000e+00   2.000001e+06      0s
       3   -3.3333333e+00   0.000000e+00   0.000000e+00      0s

Solved in 3 iterations and 0.00 seconds
Optimal objective -3.333333333e+00

Gurobi 7.0.2 (linux64, Python) logging started Mon Jun 12 18:45:55 2017

Changed value of parameter Presolve to 0
   Prev: -1  Min: -1  Max: 2  Default: -1
Changed value of parameter Method to 0
   Prev: -1  Min: -1  Max: 4  Default: -1
Changed value of parameter MIPGap to 1e-07
   Prev: 0.0001  Min: 0.0  Max: 1e+100  Default: 0.0001
Optimize a model with 5 rows, 2 columns and 7 nonzeros
Coefficient statistics:
  Matrix range     [1e+00, 6e+00]
  Objective range  [1e+00, 2e+00]
  Bounds range     [0e+00, 0e+00]
  RHS range        [1e+00, 9e+00]
Iteration    Objective       Primal Inf.    Dual Inf.      Time
       0    0.0000000e+00   1.000000e+00   1.000001e+06      0s
       3   -3.0000000e+00   0.000000e+00   0.000000e+00      0s

Solved in 3 iterations and 0.00 seconds
Optimal objective -3.000000000e+00
